% ----DATA VARIABLES----

t=15;%number of attributes
k=3;%max length of the support set
n=30;%number of positive instances
m=30;%number of negative instances
c=5;%number of atMostOne Constraints

% ----OMEGAS----

omegap= [| 1, 0, 0, 0, 0, 0, 0, 0, 0, 1, 1, 0, 0, 1, 0|
 1, 0, 1, 0, 1, 0, 1, 0, 1, 1, 1, 1, 0, 0, 0|
 0, 0, 1, 1, 1, 0, 1, 0, 0, 1, 0, 1, 0, 1, 1|
 0, 1, 0, 1, 0, 0, 1, 0, 0, 1, 1, 1, 0, 1, 0|
 1, 0, 1, 1, 1, 1, 1, 1, 0, 1, 0, 0, 1, 1, 0|
 1, 0, 0, 0, 1, 1, 1, 0, 1, 1, 0, 0, 0, 0, 1|
 0, 0, 0, 1, 0, 1, 0, 0, 0, 0, 1, 0, 1, 1, 1|
 0, 1, 1, 1, 1, 1, 1, 0, 0, 0, 1, 1, 1, 0, 1|
 1, 1, 0, 0, 0, 0, 1, 1, 0, 1, 1, 0, 1, 1, 1|
 1, 0, 0, 0, 0, 1, 1, 1, 1, 1, 0, 0, 0, 0, 0|
 1, 1, 1, 1, 0, 1, 0, 1, 0, 1, 1, 1, 1, 0, 1|
 0, 1, 1, 0, 0, 0, 1, 0, 1, 0, 0, 1, 1, 0, 0|
 1, 1, 1, 1, 1, 0, 1, 0, 0, 0, 0, 1, 1, 0, 0|
 0, 1, 0, 1, 1, 1, 1, 1, 1, 1, 1, 1, 0, 1, 1|
 1, 0, 0, 0, 0, 0, 0, 0, 1, 1, 1, 0, 1, 0, 1|
 1, 1, 0, 1, 1, 0, 1, 0, 1, 1, 1, 1, 0, 1, 1|
 0, 1, 0, 0, 0, 0, 0, 0, 1, 1, 1, 0, 1, 0, 0|
 1, 1, 1, 0, 0, 1, 0, 1, 0, 0, 0, 0, 1, 0, 1|
 0, 1, 0, 1, 1, 1, 1, 0, 1, 1, 0, 0, 0, 0, 1|
 1, 1, 0, 0, 1, 0, 0, 0, 0, 0, 0, 0, 1, 0, 1|
 1, 1, 1, 0, 1, 1, 1, 0, 1, 1, 0, 1, 0, 0, 1|
 0, 0, 0, 0, 1, 0, 1, 0, 0, 1, 1, 1, 1, 0, 1|
 0, 1, 1, 0, 0, 0, 1, 1, 0, 1, 1, 1, 1, 1, 1|
 0, 0, 0, 1, 1, 0, 1, 0, 1, 1, 0, 0, 0, 0, 1|
 0, 0, 1, 1, 1, 0, 1, 0, 0, 1, 0, 1, 1, 0, 1|
 0, 1, 0, 1, 1, 0, 0, 1, 0, 0, 0, 1, 1, 0, 1|
 1, 0, 1, 0, 0, 1, 0, 1, 1, 1, 1, 1, 1, 1, 0|
 0, 0, 1, 1, 1, 1, 1, 1, 0, 0, 1, 1, 0, 0, 0|
 0, 0, 1, 1, 0, 1, 0, 0, 0, 0, 1, 1, 0, 0, 1|
 1, 0, 1, 1, 1, 1, 1, 0, 1, 1, 1, 0, 0, 0, 1|];

omegan= [| 0, 0, 0, 0, 1, 1, 1, 1, 0, 1, 1, 0, 0, 1, 0|
 0, 1, 1, 1, 0, 1, 1, 1, 1, 0, 1, 0, 0, 1, 1|
 1, 1, 0, 0, 0, 1, 0, 0, 0, 1, 0, 1, 1, 1, 0|
 0, 1, 0, 0, 1, 0, 1, 0, 1, 0, 0, 0, 1, 1, 0|
 1, 1, 1, 0, 0, 0, 1, 1, 1, 0, 0, 0, 1, 0, 1|
 0, 0, 0, 1, 0, 1, 0, 1, 1, 0, 0, 1, 1, 1, 1|
 1, 0, 0, 1, 1, 1, 0, 0, 0, 1, 0, 1, 1, 1, 0|
 0, 0, 0, 1, 0, 1, 1, 1, 1, 1, 1, 0, 0, 1, 1|
 0, 0, 0, 1, 1, 1, 1, 0, 0, 0, 1, 1, 1, 0, 0|
 1, 0, 1, 0, 0, 1, 0, 0, 0, 1, 1, 1, 0, 1, 1|
 1, 0, 0, 1, 0, 0, 0, 1, 0, 1, 1, 1, 0, 0, 0|
 0, 1, 0, 1, 0, 1, 1, 0, 1, 0, 1, 0, 1, 1, 1|
 0, 0, 0, 0, 1, 1, 0, 1, 0, 1, 0, 1, 0, 0, 1|
 0, 0, 0, 0, 1, 0, 1, 0, 1, 0, 1, 0, 0, 1, 0|
 1, 1, 1, 1, 0, 1, 1, 1, 0, 1, 1, 1, 1, 0, 0|
 0, 1, 0, 1, 1, 0, 0, 1, 0, 0, 0, 1, 1, 1, 0|
 1, 1, 0, 0, 0, 0, 1, 0, 1, 1, 0, 0, 0, 0, 1|
 1, 0, 1, 0, 1, 1, 0, 0, 0, 1, 1, 1, 0, 1, 1|
 1, 1, 1, 0, 1, 0, 1, 1, 0, 0, 1, 0, 1, 1, 0|
 1, 1, 0, 0, 0, 0, 0, 0, 0, 1, 0, 0, 1, 1, 0|
 1, 1, 0, 1, 1, 1, 0, 0, 1, 1, 0, 0, 0, 0, 1|
 0, 1, 1, 0, 0, 1, 1, 1, 1, 0, 1, 0, 0, 1, 0|
 0, 1, 1, 0, 0, 1, 1, 1, 0, 0, 0, 0, 1, 0, 0|
 1, 1, 0, 1, 1, 1, 0, 0, 1, 0, 0, 1, 0, 1, 1|
 0, 0, 1, 0, 0, 0, 0, 1, 0, 0, 1, 1, 1, 1, 1|
 1, 1, 1, 1, 1, 0, 0, 1, 1, 0, 1, 0, 0, 1, 0|
 1, 1, 0, 0, 0, 0, 1, 1, 1, 0, 1, 1, 1, 1, 1|
 0, 1, 1, 0, 1, 1, 1, 1, 1, 1, 1, 0, 1, 0, 0|
 1, 1, 0, 1, 0, 1, 1, 1, 1, 0, 1, 1, 1, 0, 1|
 1, 1, 0, 0, 0, 1, 0, 0, 0, 0, 0, 1, 0, 1, 1|];

% ----CONSTRAINS----

atMostOne=[{9}, {1, 3, 12, 8, 8, 12}, {9, 6, 2, 8, 12}, {12, 7, 1, 3}, {1}];